NAME: cum44659.tsp
TYPE: TSP
COMMENT: User-generated TSP file
DIMENSION: 420
EDGE_WEIGHT_TYPE: EUC_2D
NODE_COORD_SECTION
1 7.0 2.0
2 5.0 9.0
3 1.0 5.0
4 4.0 5.0
5 1.0 10.0
6 10.0 9.0
7 7.0 8.0
8 10.0 2.0
9 3.0 9.0
10 5.0 6.0
11 3.0 3.0
12 3.0 5.0
13 4.0 5.0
14 7.0 2.0
15 10.0 2.0
16 4.0 10.0
17 10.0 9.0
18 4.0 6.0
19 8.0 3.0
20 2.0 5.0
21 8.0 10.0
22 8.0 3.0
23 9.0 9.0
24 3.0 7.0
25 8.0 1.0
26 3.0 5.0
27 3.0 6.0
28 9.0 6.0
29 4.0 9.0
30 2.0 5.0
31 7.0 7.0
32 9.0 1.0
33 9.0 7.0
34 1.0 1.0
35 4.0 5.0
36 6.0 6.0
37 5.0 3.0
38 5.0 3.0
39 6.0 2.0
40 4.0 5.0
41 7.0 2.0
42 4.0 1.0
43 7.0 6.0
44 1.0 7.0
45 6.0 1.0
46 5.0 2.0
47 6.0 5.0
48 3.0 2.0
49 5.0 5.0
